c Random 6-CNF over 30 variables and 240 clauses
c Generated with `cnfgen`
c (C) 2012-2016 Massimo Lauria <lauria.massimo@gmail.com>
c https://massimolauria.github.io/cnfgen
c
c COMMAND LINE: cnfgen --output tmp-6-30-240.dimacs --output-format dimacs randkcnf 6 30 240
c
c sdimacs generated by gen-sdimacs
c
p cnf 30 240
e 16 17 18 19 20 21 22 23 24 25 26 27 28 29 30 0
r 0.37 1 2 3 4 5 6 7 8 9 10 11 12 13 14 15 0
13 -17 18 -19 26 28 0
5 -7 -11 16 17 26 0
-6 -8 -11 12 -17 -28 0
4 -5 9 10 -17 25 0
-12 13 20 22 -27 -30 0
-2 -11 -16 20 22 28 0
-3 -11 -14 -21 -24 29 0
10 13 15 23 -27 -29 0
7 -14 15 -17 24 -26 0
5 6 -15 -16 22 24 0
-8 -10 13 -14 -21 28 0
8 9 -12 19 -20 23 0
-4 -6 -9 -13 -19 28 0
-5 -7 10 16 25 29 0
-5 13 -21 -24 -26 -29 0
10 -13 14 16 18 -22 0
-1 7 10 15 22 -26 0
9 15 19 -20 27 30 0
2 -5 -8 -11 17 -25 0
7 -11 13 -18 29 -30 0
-6 -14 -17 19 20 24 0
-7 8 -15 -24 26 -30 0
2 14 -17 18 29 -30 0
-2 -10 16 24 -26 28 0
1 -2 -8 -12 16 -19 0
-4 -18 21 -25 -26 30 0
1 -3 -12 14 18 -28 0
-3 8 10 -14 -16 22 0
-5 19 21 22 -26 29 0
2 -6 -12 -23 24 29 0
-1 -5 11 -16 -17 26 0
1 2 -7 -9 13 -21 0
-5 10 16 17 23 -29 0
-2 3 -13 21 25 27 0
2 -14 -15 -23 27 -29 0
3 5 -22 23 25 30 0
-1 7 8 9 20 21 0
11 -15 -17 18 -27 29 0
1 -2 -6 17 20 29 0
-1 6 7 27 -29 -30 0
-1 -6 14 17 -24 29 0
-7 13 17 18 21 25 0
1 2 3 -10 20 -23 0
1 5 -8 -17 26 27 0
6 9 -10 -20 -26 27 0
10 15 16 27 -28 -30 0
-4 -10 17 18 -19 26 0
-1 8 23 24 25 27 0
4 9 11 12 26 -27 0
6 10 -17 -18 -24 -25 0
3 8 10 14 -21 28 0
2 -3 6 -10 11 -29 0
-1 -8 9 -16 20 -26 0
-5 -6 -12 25 27 -29 0
1 -10 -11 -19 21 23 0
3 -5 -7 -21 24 -30 0
4 -10 11 19 -20 21 0
-6 -8 13 -19 -20 -30 0
-8 -11 17 -18 19 -20 0
-3 11 -12 -16 -19 22 0
1 -3 -8 11 -15 -20 0
-5 17 -21 22 25 -27 0
-2 6 -15 19 20 30 0
5 14 15 -16 -25 27 0
-1 9 18 -25 -26 29 0
-9 14 19 23 -27 28 0
2 3 -12 17 -22 24 0
1 2 4 21 25 -26 0
-1 3 -4 12 -18 27 0
-14 17 19 -21 24 26 0
-3 15 -16 20 -21 24 0
-17 -18 -23 -26 -29 -30 0
5 6 -7 -21 25 29 0
1 -2 8 11 22 30 0
-4 5 11 -12 16 -28 0
-7 -8 -9 10 -15 -28 0
-2 -14 21 -23 -24 29 0
8 -9 11 -22 23 27 0
11 19 23 24 25 29 0
1 3 9 -17 -20 -23 0
1 2 -3 -5 8 -24 0
2 -4 -6 17 18 -29 0
-2 5 -11 -15 -20 -27 0
-4 -7 -14 -16 -22 30 0
8 11 17 -20 -26 29 0
-7 12 13 -25 -27 28 0
-3 -4 -23 -26 28 30 0
7 -12 -15 23 -25 30 0
-9 11 -15 -24 25 30 0
4 -12 -13 16 -25 -26 0
3 -5 7 14 21 27 0
12 13 -17 18 -19 21 0
1 -2 12 14 21 23 0
5 10 20 22 -25 26 0
-11 -20 -21 23 -24 -29 0
5 -11 -14 17 22 24 0
-8 9 -18 21 29 -30 0
2 7 9 -13 -20 -27 0
17 -18 20 -26 28 29 0
-3 -6 -15 -16 -25 -26 0
1 16 19 20 24 -27 0
-6 -8 10 -12 -17 -28 0
2 3 -8 9 -19 -21 0
4 7 -13 -17 -19 21 0
2 22 25 -27 -28 29 0
-2 7 -10 -15 -19 29 0
-6 13 24 27 28 30 0
-6 -12 -17 24 25 -30 0
9 10 11 -17 25 27 0
5 -15 -18 -22 -26 28 0
-5 12 21 -25 26 -28 0
2 6 7 -8 -24 26 0
-9 -15 18 -22 -26 -30 0
-4 8 18 -24 27 -28 0
7 -9 -12 -13 25 -27 0
2 5 -12 -20 -23 -28 0
9 -18 22 -23 -25 -26 0
2 6 8 -11 14 -16 0
-1 11 14 -17 19 27 0
2 5 10 13 15 -28 0
-1 9 -17 -21 27 -30 0
7 8 -12 -17 -19 30 0
-1 4 -12 -15 26 30 0
6 8 15 -21 25 26 0
2 -13 -17 19 -20 -26 0
1 4 -5 -14 -28 29 0
1 2 -11 -13 14 -20 0
5 -17 -18 19 -21 24 0
-2 5 6 -9 -14 -25 0
3 10 -12 17 -18 -26 0
-3 -7 -11 -18 -23 26 0
1 -4 6 -12 16 -21 0
2 -10 13 16 28 29 0
4 7 12 13 -22 -28 0
-14 -19 -23 -24 -29 30 0
1 -2 -6 10 -20 -27 0
-6 -8 16 20 28 -30 0
5 -8 -10 25 -27 -28 0
2 9 15 -20 -21 23 0
-2 -12 -16 -20 -27 -29 0
18 23 -24 -25 28 -30 0
-1 4 10 -19 20 -29 0
1 -8 14 19 23 29 0
-1 7 10 24 25 30 0
7 8 11 19 23 -25 0
-5 13 -19 21 23 25 0
4 -5 11 14 25 -30 0
5 6 -10 11 16 -17 0
-7 10 18 22 23 25 0
1 5 -9 -16 27 29 0
-9 -19 -24 25 -29 -30 0
1 -8 9 -17 -24 27 0
4 -8 9 13 -21 -26 0
-5 -8 13 -17 -23 -27 0
1 -4 7 -14 -19 -22 0
1 -7 10 19 -24 -25 0
1 -3 -9 -10 -18 25 0
-3 12 15 -24 -26 28 0
2 -10 11 -21 24 -29 0
1 -13 14 -16 18 21 0
-3 -4 7 15 -19 -28 0
8 -9 12 -14 -15 19 0
-4 7 -15 21 -22 23 0
-3 11 -12 19 20 28 0
10 -15 -18 -22 -23 27 0
-5 6 -7 -14 25 -26 0
-1 -5 -9 -14 20 21 0
-2 4 -6 7 17 -23 0
-6 -8 -16 27 -28 -30 0
7 8 10 12 -27 -29 0
4 -8 -11 13 -18 -29 0
-1 -9 13 20 22 -27 0
-3 10 -24 27 -28 -30 0
-7 -16 18 -19 -21 25 0
5 -8 -12 15 24 25 0
-3 15 16 17 -19 30 0
3 10 -11 20 22 25 0
2 4 -13 18 -25 -26 0
-6 -15 -16 17 26 30 0
2 -4 11 -14 19 20 0
-8 14 17 -20 24 25 0
-2 -3 4 -6 -8 -12 0
5 9 -12 -20 21 30 0
4 7 12 -14 18 30 0
7 -9 14 19 23 24 0
2 5 -14 15 19 29 0
5 9 20 25 26 -27 0
5 -7 10 -13 -17 22 0
2 4 5 -11 21 -25 0
4 12 18 19 25 27 0
3 6 9 -20 21 23 0
7 -10 22 26 -28 -30 0
-2 12 24 25 -27 -29 0
-6 -12 -15 21 -25 26 0
-2 -3 -7 14 -20 -25 0
1 -10 16 -21 26 -30 0
4 -10 -14 15 -22 -30 0
6 -11 12 -13 18 21 0
-6 7 9 -24 -25 -26 0
1 4 11 -12 -14 15 0
-10 15 19 23 28 -29 0
-3 -10 -11 -19 -24 30 0
2 -3 -8 17 19 -20 0
-5 -14 -16 20 23 28 0
-1 10 -16 17 20 -27 0
-5 -15 -18 -22 24 -25 0
-2 5 -12 13 25 -27 0
1 2 -8 10 -21 -30 0
7 -15 17 -20 24 -26 0
1 -2 -3 7 -9 -10 0
4 15 19 22 -24 29 0
5 7 -9 -21 -24 -26 0
-7 -11 15 17 19 -27 0
3 5 -7 16 24 -26 0
1 6 -9 -20 -24 25 0
1 -2 13 14 18 27 0
-1 -6 10 11 -14 -20 0
2 -3 -14 -20 -21 -30 0
-2 5 -6 10 -18 -20 0
3 -16 -18 -23 25 28 0
-9 10 17 18 -20 24 0
7 8 11 15 18 21 0
8 -16 -17 -20 -23 -28 0
3 -14 16 18 21 28 0
6 9 10 17 -19 -23 0
-4 14 -17 -19 24 25 0
8 -10 17 20 -27 28 0
-8 -10 -13 -14 16 -30 0
1 3 -11 -22 25 -30 0
4 5 10 -18 -29 -30 0
-4 -7 -17 -18 25 -29 0
-1 -4 -9 -10 -13 -28 0
5 8 9 10 -20 30 0
2 6 17 -18 -23 24 0
16 19 21 -25 27 -29 0
-3 8 9 13 14 18 0
-3 5 8 -12 14 -25 0
-1 2 -8 16 19 29 0
8 -10 11 12 14 -15 0
-3 -6 9 20 23 -24 0
